NAME : in_house_9_10
TYPE : TSP
DIMENSION : 9
EDGE_WEIGHT_TYPE : EXPLICIT
EDGE_WEIGHT_FORMAT : UPPER_ROW
COMMENT : INVERSION_SHIFT=8
EDGE_WEIGHT_SECTION
8
52
75
71
38
52
34
29
32
16
72
77
21
3
12
59
81
29
9
36
53
65
25
71
37
39
51
53
38
16
46
3
80
55
63
32
